c preprocessed version of 1erv_graph, 101 vertices, 1267 edges
p td 101 1267
99 100
98 100
98 99
97 100
97 99
97 98
96 100
96 99
96 98
96 97
95 100
95 99
95 98
95 97
95 96
94 99
94 98
94 97
94 96
94 95
93 100
93 98
93 97
93 96
93 95
93 94
92 100
92 99
92 97
92 96
92 95
92 94
92 93
91 99
91 98
91 96
91 95
91 94
91 93
91 92
90 98
90 97
90 95
90 94
90 93
90 92
90 91
89 96
89 94
89 93
89 92
89 91
89 90
88 95
88 94
88 92
88 91
88 90
88 89
87 92
87 89
87 88
86 92
86 91
86 88
86 87
85 95
85 92
85 91
85 88
85 87
85 86
84 99
84 98
84 96
84 95
84 94
84 92
84 91
84 90
84 88
84 86
84 85
83 99
83 95
83 92
83 91
83 85
83 84
82 100
82 99
82 98
82 96
82 95
82 94
82 92
82 91
82 84
82 83
81 100
81 99
81 98
81 96
81 95
81 84
81 83
81 82
80 99
80 95
80 83
80 82
80 81
79 99
79 81
79 80
78 80
78 79
77 81
77 79
77 78
76 100
76 99
76 98
76 96
76 95
76 82
76 81
76 80
76 79
76 78
76 77
75 99
75 96
75 95
75 83
75 82
75 81
75 80
75 79
75 78
75 77
75 76
74 100
74 99
74 98
74 96
74 95
74 94
74 93
74 92
74 91
74 84
74 83
74 82
74 81
74 80
74 79
74 76
74 75
73 99
73 96
73 95
73 92
73 85
73 84
73 83
73 82
73 81
73 80
73 79
73 78
73 76
73 75
73 74
72 99
72 96
72 95
72 93
72 92
72 91
72 89
72 88
72 87
72 86
72 85
72 84
72 83
72 82
72 81
72 80
72 76
72 75
72 74
72 73
71 95
71 92
71 86
71 85
71 84
71 83
71 82
71 80
71 75
71 74
71 73
71 72
70 96
70 95
70 92
70 91
70 89
70 88
70 87
70 86
70 85
70 84
70 82
70 74
70 73
70 72
70 71
69 87
69 86
69 85
69 83
69 73
69 71
69 70
68 91
68 88
68 86
68 85
68 84
68 83
68 73
68 72
68 71
68 70
68 69
67 85
67 83
67 73
67 71
67 69
67 68
66 85
66 84
66 83
66 80
66 75
66 73
66 72
66 71
66 70
66 69
66 68
66 67
65 85
65 83
65 80
65 73
65 71
65 68
65 67
65 66
64 80
64 78
64 75
64 73
64 66
64 65
63 67
63 66
63 65
63 64
62 85
62 83
62 73
62 71
62 70
62 69
62 68
62 67
62 66
62 65
62 64
62 63
61 80
61 75
61 73
61 71
61 69
61 66
61 64
61 63
61 62
60 64
60 63
60 62
60 61
59 69
59 67
59 66
59 64
59 63
59 62
59 61
59 60
58 61
58 59
57 69
57 66
57 62
57 59
57 58
56 85
56 83
56 73
56 71
56 70
56 69
56 68
56 67
56 66
56 63
56 62
56 61
56 59
56 58
56 57
55 70
55 69
55 66
55 62
55 61
55 58
55 57
55 56
54 83
54 80
54 75
54 73
54 72
54 71
54 70
54 69
54 66
54 64
54 62
54 61
54 60
54 58
54 56
54 55
53 96
53 92
53 72
53 70
53 69
53 66
53 61
53 58
53 57
53 56
53 55
53 54
52 96
52 80
52 75
52 74
52 73
52 72
52 71
52 66
52 61
52 56
52 55
52 54
52 53
51 100
51 99
51 96
51 95
51 93
51 92
51 75
51 74
51 72
51 70
51 55
51 54
51 53
51 52
50 96
50 78
50 75
50 74
50 73
50 54
50 53
50 52
50 51
49 100
49 99
49 97
49 96
49 95
49 93
49 92
49 82
49 81
49 76
49 75
49 74
49 72
49 53
49 52
49 51
49 50
48 100
48 97
48 96
48 93
48 76
48 74
48 51
48 50
48 49
47 100
47 96
47 51
47 50
47 49
47 48
46 100
46 99
46 97
46 96
46 95
46 93
46 92
46 76
46 74
46 72
46 51
46 50
46 49
46 48
46 47
45 100
45 97
45 96
45 93
45 92
45 89
45 51
45 49
45 48
45 47
45 46
44 51
44 47
44 46
44 45
43 100
43 96
43 93
43 92
43 74
43 72
43 70
43 53
43 52
43 51
43 50
43 49
43 47
43 46
43 45
43 44
42 100
42 99
42 97
42 96
42 95
42 94
42 93
42 92
42 91
42 90
42 89
42 87
42 74
42 72
42 70
42 53
42 51
42 50
42 49
42 48
42 46
42 45
42 44
42 43
41 96
41 93
41 92
41 89
41 49
41 46
41 45
41 44
41 43
41 42
40 92
40 55
40 53
40 51
40 44
40 43
40 42
40 41
39 96
39 95
39 93
39 92
39 91
39 89
39 88
39 87
39 84
39 74
39 72
39 71
39 70
39 55
39 54
39 53
39 52
39 51
39 50
39 49
39 46
39 43
39 42
39 41
39 40
38 96
38 93
38 92
38 90
38 89
38 88
38 87
38 72
38 70
38 51
38 46
38 45
38 42
38 41
38 40
38 39
37 92
37 89
37 87
37 53
37 45
37 44
37 42
37 41
37 40
37 39
37 38
36 92
36 89
36 87
36 72
36 70
36 55
36 53
36 51
36 43
36 41
36 40
36 39
36 38
36 37
35 96
35 95
35 93
35 92
35 91
35 90
35 89
35 88
35 87
35 86
35 84
35 74
35 72
35 71
35 70
35 69
35 66
35 53
35 51
35 42
35 41
35 40
35 39
35 38
35 37
35 36
34 92
34 89
34 88
34 87
34 86
34 70
34 39
34 38
34 37
34 36
34 35
33 87
33 70
33 55
33 53
33 40
33 39
33 37
33 36
33 35
33 34
32 92
32 89
32 88
32 87
32 86
32 85
32 72
32 71
32 70
32 69
32 68
32 39
32 38
32 35
32 34
32 33
31 87
31 34
31 33
31 32
30 69
30 57
30 56
30 55
30 33
30 31
29 69
29 58
29 57
29 56
29 55
29 53
29 36
29 33
29 30
28 71
28 70
28 69
28 68
28 67
28 66
28 62
28 59
28 58
28 57
28 56
28 55
28 54
28 53
28 36
28 31
28 30
28 29
27 92
27 87
27 73
27 72
27 71
27 70
27 69
27 66
27 62
27 61
27 58
27 57
27 56
27 55
27 54
27 53
27 52
27 51
27 43
27 40
27 39
27 38
27 36
27 35
27 33
27 32
27 29
27 28
26 85
26 83
26 80
26 75
26 74
26 73
26 72
26 71
26 70
26 69
26 68
26 67
26 66
26 65
26 64
26 63
26 62
26 61
26 59
26 57
26 56
26 55
26 54
26 53
26 52
26 39
26 35
26 28
26 27
25 96
25 95
25 93
25 92
25 89
25 88
25 87
25 86
25 84
25 74
25 73
25 72
25 71
25 70
25 69
25 66
25 62
25 61
25 56
25 55
25 54
25 53
25 52
25 51
25 50
25 49
25 46
25 43
25 42
25 40
25 39
25 38
25 36
25 35
25 34
25 33
25 32
25 29
25 28
25 27
25 26
24 96
24 92
24 83
24 80
24 76
24 75
24 74
24 73
24 72
24 71
24 70
24 69
24 66
24 64
24 62
24 61
24 56
24 55
24 54
24 53
24 52
24 51
24 50
24 49
24 39
24 28
24 27
24 26
24 25
23 100
23 99
23 98
23 97
23 96
23 95
23 93
23 92
23 91
23 89
23 84
23 83
23 82
23 81
23 76
23 75
23 74
23 73
23 72
23 71
23 70
23 54
23 53
23 52
23 51
23 50
23 49
23 48
23 46
23 45
23 43
23 42
23 40
23 39
23 38
23 36
23 35
23 27
23 26
23 25
23 24
22 99
22 96
22 95
22 82
22 81
22 80
22 79
22 78
22 77
22 76
22 75
22 74
22 73
22 72
22 66
22 61
22 54
22 53
22 52
22 51
22 50
22 49
22 43
22 39
22 26
22 25
22 24
22 23
21 100
21 99
21 98
21 97
21 96
21 95
21 93
21 92
21 84
21 82
21 81
21 80
21 79
21 77
21 76
21 75
21 74
21 73
21 72
21 52
21 51
21 50
21 49
21 48
21 46
21 43
21 42
21 39
21 25
21 24
21 23
21 22
20 100
20 96
20 77
20 76
20 75
20 74
20 52
20 51
20 50
20 49
20 48
20 47
20 46
20 23
20 22
20 21
19 100
19 81
19 79
19 77
19 76
19 50
19 48
19 22
19 21
19 20
18 78
18 77
18 76
18 75
18 50
18 22
18 20
18 19
17 78
17 77
17 76
17 75
17 74
17 73
17 54
17 52
17 51
17 50
17 49
17 24
17 23
17 22
17 21
17 20
17 19
17 18
16 78
16 75
16 52
16 50
16 22
16 20
16 18
16 17
15 78
15 77
15 75
15 50
15 22
15 18
15 17
15 16
14 81
14 80
14 79
14 78
14 77
14 76
14 75
14 74
14 73
14 64
14 61
14 54
14 52
14 50
14 26
14 24
14 23
14 22
14 21
14 20
14 17
14 16
14 15
13 75
13 73
13 61
13 54
13 53
13 52
13 51
13 50
13 49
13 39
13 26
13 25
13 24
13 23
13 22
13 21
13 20
13 17
13 16
13 15
13 14
12 52
12 50
12 16
12 15
12 14
12 13
11 80
11 78
11 75
11 64
11 61
11 60
11 54
11 52
11 24
11 22
11 16
11 15
11 14
11 13
11 12
10 80
10 78
10 75
10 73
10 71
10 66
10 64
10 62
10 61
10 60
10 58
10 56
10 55
10 54
10 53
10 52
10 50
10 26
10 25
10 24
10 22
10 17
10 15
10 14
10 13
10 12
10 11
9 61
9 58
9 54
9 53
9 52
9 50
9 24
9 22
9 17
9 16
9 14
9 13
9 12
9 11
9 10
8 60
8 16
8 15
8 13
8 12
8 11
8 10
8 9
7 80
7 78
7 64
7 63
7 61
7 60
7 59
7 54
7 26
7 24
7 14
7 12
7 11
7 10
7 9
7 8
6 61
6 60
6 58
6 54
6 52
6 13
6 12
6 11
6 10
6 9
6 8
6 7
5 61
5 58
5 57
5 55
5 54
5 53
5 52
5 29
5 27
5 13
5 12
5 10
5 9
5 8
5 7
5 6
4 75
4 73
4 66
4 64
4 62
4 61
4 60
4 58
4 56
4 55
4 54
4 53
4 52
4 51
4 50
4 39
4 27
4 26
4 25
4 24
4 22
4 17
4 16
4 14
4 13
4 12
4 11
4 10
4 9
4 7
4 6
4 5
3 61
3 58
3 57
3 55
3 54
3 53
3 52
3 51
3 43
3 40
3 39
3 36
3 29
3 27
3 25
3 24
3 13
3 10
3 9
3 5
3 4
2 75
2 61
2 54
2 53
2 52
2 51
2 50
2 47
2 43
2 40
2 39
2 24
2 22
2 20
2 17
2 16
2 14
2 13
2 12
2 10
2 9
2 5
2 4
2 3
1 96
1 92
1 74
1 72
1 70
1 55
1 54
1 53
1 52
1 51
1 50
1 49
1 46
1 44
1 43
1 42
1 41
1 40
1 39
1 37
1 36
1 35
1 27
1 25
1 24
1 23
1 22
1 21
1 13
1 4
1 3
1 2
0 53
0 51
0 50
0 47
0 45
0 44
0 43
0 41
0 40
0 39
0 37
0 36
0 3
0 2
0 1
